3809.99
0 43 38 3 9 5 2 1 6 13 12 11 10 4 8 7 15 51 58 34 37 23 20 21 18 0
0 17 16 14 24 19 61 63 57 0
0 85 76 22 28 26 67 73 29 25 27 0
0 33 35 30 31 32 39 36 0
0 68 44 40 47 49 48 45 41 46 80 52 0
0 77 50 69 60 55 56 54 53 0
0 94 75 91 78 70 71 74 66 42 99 98 64 62 59 0
0 72 65 100 81 0
0 88 86 82 87 83 79 84 0
0 95 93 92 89 90 0
0 96 97 0
